c strEdges: 125  randomEdges: 504 
c degrees:  1  2 
c girth: Inf max: -43.604516  
c Hgirth mixed MAXCUT instance
c generated from an undirected graph
c to solve unweighted MaxCut
p cnf 140 1258
99 110 0
-99 -110 0
99 6 0
-99 -6 0
7 6 0
-7 -6 0
7 55 0
-7 -55 0
74 132 0
-74 -132 0
74 13 0
-74 -13 0
140 27 0
-140 -27 0
140 112 0
-140 -112 0
121 26 0
-121 -26 0
98 80 0
-98 -80 0
53 39 0
-53 -39 0
53 8 0
-53 -8 0
19 52 0
-19 -52 0
19 34 0
-19 -34 0
118 92 0
-118 -92 0
118 126 0
-118 -126 0
106 18 0
-106 -18 0
50 13 0
-50 -13 0
50 12 0
-50 -12 0
37 138 0
-37 -138 0
37 119 0
-37 -119 0
60 66 0
-60 -66 0
60 104 0
-60 -104 0
130 90 0
-130 -90 0
73 71 0
-73 -71 0
73 129 0
-73 -129 0
35 67 0
-35 -67 0
35 22 0
-35 -22 0
57 28 0
-57 -28 0
57 27 0
-57 -27 0
116 77 0
-116 -77 0
116 89 0
-116 -89 0
115 42 0
-115 -42 0
115 76 0
-115 -76 0
114 17 0
-114 -17 0
114 107 0
-114 -107 0
44 64 0
-44 -64 0
44 81 0
-44 -81 0
102 136 0
-102 -136 0
102 26 0
-102 -26 0
124 47 0
-124 -47 0
124 42 0
-124 -42 0
40 89 0
-40 -89 0
40 125 0
-40 -125 0
23 69 0
-23 -69 0
23 84 0
-23 -84 0
16 81 0
-16 -81 0
16 82 0
-16 -82 0
113 103 0
-113 -103 0
113 108 0
-113 -108 0
128 25 0
-128 -25 0
15 63 0
-15 -63 0
15 111 0
-15 -111 0
33 55 0
-33 -55 0
33 63 0
-33 -63 0
100 82 0
-100 -82 0
100 17 0
-100 -17 0
120 48 0
-120 -48 0
3 22 0
-3 -22 0
3 122 0
-3 -122 0
11 36 0
-11 -36 0
61 123 0
-61 -123 0
61 65 0
-61 -65 0
68 34 0
-68 -34 0
68 38 0
-68 -38 0
31 127 0
-31 -127 0
31 59 0
-31 -59 0
85 93 0
-85 -93 0
85 18 0
-85 -18 0
96 107 0
-96 -107 0
96 1 0
-96 -1 0
58 91 0
-58 -91 0
58 24 0
-58 -24 0
32 125 0
-32 -125 0
32 123 0
-32 -123 0
97 126 0
-97 -126 0
97 133 0
-97 -133 0
134 75 0
-134 -75 0
134 77 0
-134 -77 0
43 139 0
-43 -139 0
43 91 0
-43 -91 0
131 111 0
-131 -111 0
131 52 0
-131 -52 0
2 59 0
-2 -59 0
117 4 0
-117 -4 0
117 28 0
-117 -28 0
20 8 0
-20 -8 0
20 136 0
-20 -136 0
88 1 0
-88 -1 0
88 4 0
-88 -4 0
95 12 0
-95 -12 0
79 72 0
-79 -72 0
79 80 0
-79 -80 0
109 122 0
-109 -122 0
29 108 0
-29 -108 0
135 70 0
-135 -70 0
135 93 0
-135 -93 0
54 129 0
-54 -129 0
54 92 0
-54 -92 0
10 87 0
-10 -87 0
10 41 0
-10 -41 0
21 104 0
-21 -104 0
21 83 0
-21 -83 0
5 76 0
-5 -76 0
5 138 0
-5 -138 0
9 83 0
-9 -83 0
9 45 0
-9 -45 0
101 41 0
-101 -41 0
49 84 0
-49 -84 0
49 71 0
-49 -71 0
46 24 0
-46 -24 0
46 70 0
-46 -70 0
105 65 0
-105 -65 0
105 67 0
-105 -67 0
14 86 0
-14 -86 0
51 38 0
-51 -38 0
51 139 0
-51 -139 0
78 45 0
-78 -45 0
62 137 0
-62 -137 0
62 75 0
-62 -75 0
30 112 0
-30 -112 0
30 69 0
-30 -69 0
94 133 0
-94 -133 0
56 119 0
-56 -119 0
56 48 0
-56 -48 0
57 22 0
-57 -22 0
99 118 0
-99 -118 0
43 127 0
-43 -127 0
61 59 0
-61 -59 0
95 39 0
-95 -39 0
29 82 0
-29 -82 0
23 26 0
-23 -26 0
19 16 0
-19 -16 0
34 59 0
-34 -59 0
97 111 0
-97 -111 0
99 55 0
-99 -55 0
109 59 0
-109 -59 0
106 6 0
-106 -6 0
97 20 0
-97 -20 0
135 38 0
-135 -38 0
60 119 0
-60 -119 0
93 122 0
-93 -122 0
60 9 0
-60 -9 0
92 83 0
-92 -83 0
94 92 0
-94 -92 0
33 72 0
-33 -72 0
3 21 0
-3 -21 0
11 69 0
-11 -69 0
27 8 0
-27 -8 0
40 65 0
-40 -65 0
125 126 0
-125 -126 0
53 10 0
-53 -10 0
98 10 0
-98 -10 0
16 125 0
-16 -125 0
101 80 0
-101 -80 0
44 20 0
-44 -20 0
50 26 0
-50 -26 0
115 41 0
-115 -41 0
111 129 0
-111 -129 0
18 119 0
-18 -119 0
46 38 0
-46 -38 0
130 82 0
-130 -82 0
12 122 0
-12 -122 0
68 58 0
-68 -58 0
9 87 0
-9 -87 0
39 65 0
-39 -65 0
91 112 0
-91 -112 0
128 136 0
-128 -136 0
64 133 0
-64 -133 0
106 68 0
-106 -68 0
59 72 0
-59 -72 0
114 20 0
-114 -20 0
110 27 0
-110 -27 0
29 93 0
-29 -93 0
79 39 0
-79 -39 0
116 69 0
-116 -69 0
3 47 0
-3 -47 0
60 44 0
-60 -44 0
57 88 0
-57 -88 0
98 135 0
-98 -135 0
120 90 0
-120 -90 0
6 52 0
-6 -52 0
34 83 0
-34 -83 0
99 20 0
-99 -20 0
3 125 0
-3 -125 0
10 81 0
-10 -81 0
114 108 0
-114 -108 0
127 4 0
-127 -4 0
19 14 0
-19 -14 0
3 131 0
-3 -131 0
136 104 0
-136 -104 0
88 42 0
-88 -42 0
46 8 0
-46 -8 0
78 6 0
-78 -6 0
109 27 0
-109 -27 0
48 84 0
-48 -84 0
78 69 0
-78 -69 0
136 111 0
-136 -111 0
40 49 0
-40 -49 0
33 14 0
-33 -14 0
113 12 0
-113 -12 0
7 107 0
-7 -107 0
128 101 0
-128 -101 0
37 125 0
-37 -125 0
61 25 0
-61 -25 0
14 136 0
-14 -136 0
57 24 0
-57 -24 0
13 28 0
-13 -28 0
139 72 0
-139 -72 0
32 112 0
-32 -112 0
96 65 0
-96 -65 0
17 126 0
-17 -126 0
51 71 0
-51 -71 0
50 40 0
-50 -40 0
102 108 0
-102 -108 0
74 30 0
-74 -30 0
80 64 0
-80 -64 0
2 41 0
-2 -41 0
48 137 0
-48 -137 0
26 45 0
-26 -45 0
94 70 0
-94 -70 0
90 22 0
-90 -22 0
98 94 0
-98 -94 0
31 112 0
-31 -112 0
72 108 0
-72 -108 0
95 91 0
-95 -91 0
94 119 0
-94 -119 0
12 24 0
-12 -24 0
123 12 0
-123 -12 0
57 16 0
-57 -16 0
23 24 0
-23 -24 0
90 122 0
-90 -122 0
62 27 0
-62 -27 0
106 59 0
-106 -59 0
3 29 0
-3 -29 0
33 64 0
-33 -64 0
132 1 0
-132 -1 0
138 136 0
-138 -136 0
23 83 0
-23 -83 0
121 16 0
-121 -16 0
131 87 0
-131 -87 0
57 123 0
-57 -123 0
130 46 0
-130 -46 0
30 103 0
-30 -103 0
100 117 0
-100 -117 0
116 13 0
-116 -13 0
37 1 0
-37 -1 0
117 125 0
-117 -125 0
50 93 0
-50 -93 0
39 129 0
-39 -129 0
68 59 0
-68 -59 0
140 44 0
-140 -44 0
114 112 0
-114 -112 0
57 139 0
-57 -139 0
114 24 0
-114 -24 0
97 66 0
-97 -66 0
98 17 0
-98 -17 0
33 86 0
-33 -86 0
58 41 0
-58 -41 0
82 75 0
-82 -75 0
33 90 0
-33 -90 0
121 124 0
-121 -124 0
58 126 0
-58 -126 0
99 12 0
-99 -12 0
120 119 0
-120 -119 0
37 4 0
-37 -4 0
19 30 0
-19 -30 0
2 64 0
-2 -64 0
64 129 0
-64 -129 0
43 72 0
-43 -72 0
89 119 0
-89 -119 0
118 77 0
-118 -77 0
13 75 0
-13 -75 0
117 93 0
-117 -93 0
75 87 0
-75 -87 0
31 117 0
-31 -117 0
11 43 0
-11 -43 0
29 70 0
-29 -70 0
55 127 0
-55 -127 0
99 103 0
-99 -103 0
43 54 0
-43 -54 0
103 48 0
-103 -48 0
113 21 0
-113 -21 0
37 94 0
-37 -94 0
60 71 0
-60 -71 0
109 75 0
-109 -75 0
68 67 0
-68 -67 0
95 101 0
-95 -101 0
20 14 0
-20 -14 0
11 1 0
-11 -1 0
80 93 0
-80 -93 0
92 1 0
-92 -1 0
118 9 0
-118 -9 0
118 21 0
-118 -21 0
79 107 0
-79 -107 0
10 5 0
-10 -5 0
106 32 0
-106 -32 0
6 18 0
-6 -18 0
71 75 0
-71 -75 0
68 112 0
-68 -112 0
135 94 0
-135 -94 0
32 12 0
-32 -12 0
46 84 0
-46 -84 0
20 13 0
-20 -13 0
130 40 0
-130 -40 0
74 18 0
-74 -18 0
34 104 0
-34 -104 0
19 11 0
-19 -11 0
120 66 0
-120 -66 0
2 72 0
-2 -72 0
113 22 0
-113 -22 0
26 80 0
-26 -80 0
81 82 0
-81 -82 0
130 132 0
-130 -132 0
20 51 0
-20 -51 0
67 133 0
-67 -133 0
16 4 0
-16 -4 0
74 72 0
-74 -72 0
14 18 0
-14 -18 0
23 47 0
-23 -47 0
75 4 0
-75 -4 0
60 8 0
-60 -8 0
100 120 0
-100 -120 0
116 102 0
-116 -102 0
79 55 0
-79 -55 0
67 63 0
-67 -63 0
131 93 0
-131 -93 0
10 62 0
-10 -62 0
10 132 0
-10 -132 0
17 36 0
-17 -36 0
85 9 0
-85 -9 0
121 43 0
-121 -43 0
118 139 0
-118 -139 0
88 126 0
-88 -126 0
117 34 0
-117 -34 0
44 75 0
-44 -75 0
10 133 0
-10 -133 0
52 126 0
-52 -126 0
27 76 0
-27 -76 0
98 32 0
-98 -32 0
7 23 0
-7 -23 0
77 25 0
-77 -25 0
84 112 0
-84 -112 0
27 77 0
-27 -77 0
44 136 0
-44 -136 0
2 75 0
-2 -75 0
19 124 0
-19 -124 0
31 42 0
-31 -42 0
139 111 0
-139 -111 0
95 18 0
-95 -18 0
58 12 0
-58 -12 0
62 103 0
-62 -103 0
50 124 0
-50 -124 0
103 22 0
-103 -22 0
80 45 0
-80 -45 0
84 137 0
-84 -137 0
134 86 0
-134 -86 0
69 125 0
-69 -125 0
99 10 0
-99 -10 0
124 14 0
-124 -14 0
76 137 0
-76 -137 0
102 23 0
-102 -23 0
49 28 0
-49 -28 0
17 107 0
-17 -107 0
130 15 0
-130 -15 0
74 122 0
-74 -122 0
121 72 0
-121 -72 0
114 104 0
-114 -104 0
31 69 0
-31 -69 0
9 111 0
-9 -111 0
33 34 0
-33 -34 0
130 102 0
-130 -102 0
24 137 0
-24 -137 0
88 12 0
-88 -12 0
3 46 0
-3 -46 0
37 85 0
-37 -85 0
117 8 0
-117 -8 0
10 18 0
-10 -18 0
12 87 0
-12 -87 0
115 128 0
-115 -128 0
121 130 0
-121 -130 0
124 135 0
-124 -135 0
20 129 0
-20 -129 0
100 66 0
-100 -66 0
85 20 0
-85 -20 0
15 62 0
-15 -62 0
63 82 0
-63 -82 0
16 76 0
-16 -76 0
65 38 0
-65 -38 0
73 45 0
-73 -45 0
116 33 0
-116 -33 0
100 135 0
-100 -135 0
114 12 0
-114 -12 0
118 67 0
-118 -67 0
103 38 0
-103 -38 0
109 81 0
-109 -81 0
107 41 0
-107 -41 0
28 48 0
-28 -48 0
74 36 0
-74 -36 0
27 47 0
-27 -47 0
88 70 0
-88 -70 0
61 10 0
-61 -10 0
44 25 0
-44 -25 0
81 34 0
-81 -34 0
53 65 0
-53 -65 0
26 75 0
-26 -75 0
69 133 0
-69 -133 0
72 84 0
-72 -84 0
134 39 0
-134 -39 0
31 135 0
-31 -135 0
97 27 0
-97 -27 0
140 38 0
-140 -38 0
61 69 0
-61 -69 0
129 119 0
-129 -119 0
140 75 0
-140 -75 0
79 103 0
-79 -103 0
130 139 0
-130 -139 0
35 109 0
-35 -109 0
114 102 0
-114 -102 0
131 135 0
-131 -135 0
111 137 0
-111 -137 0
9 67 0
-9 -67 0
14 125 0
-14 -125 0
95 129 0
-95 -129 0
124 9 0
-124 -9 0
64 82 0
-64 -82 0
49 12 0
-49 -12 0
66 127 0
-66 -127 0
43 77 0
-43 -77 0
35 70 0
-35 -70 0
107 129 0
-107 -129 0
118 69 0
-118 -69 0
99 26 0
-99 -26 0
101 49 0
-101 -49 0
73 111 0
-73 -111 0
47 123 0
-47 -123 0
2 127 0
-2 -127 0
135 77 0
-135 -77 0
21 26 0
-21 -26 0
109 55 0
-109 -55 0
20 49 0
-20 -49 0
132 76 0
-132 -76 0
140 81 0
-140 -81 0
96 46 0
-96 -46 0
20 105 0
-20 -105 0
94 1 0
-94 -1 0
99 73 0
-99 -73 0
41 137 0
-41 -137 0
73 35 0
-73 -35 0
88 63 0
-88 -63 0
79 38 0
-79 -38 0
68 45 0
-68 -45 0
98 55 0
-98 -55 0
95 93 0
-95 -93 0
85 58 0
-85 -58 0
12 137 0
-12 -137 0
128 72 0
-128 -72 0
35 8 0
-35 -8 0
53 85 0
-53 -85 0
73 47 0
-73 -47 0
99 101 0
-99 -101 0
50 52 0
-50 -52 0
116 28 0
-116 -28 0
99 15 0
-99 -15 0
2 132 0
-2 -132 0
60 38 0
-60 -38 0
40 46 0
-40 -46 0
99 16 0
-99 -16 0
122 112 0
-122 -112 0
90 67 0
-90 -67 0
61 51 0
-61 -51 0
29 21 0
-29 -21 0
2 18 0
-2 -18 0
77 107 0
-77 -107 0
35 132 0
-35 -132 0
2 70 0
-2 -70 0
113 120 0
-113 -120 0
11 6 0
-11 -6 0
116 10 0
-116 -10 0
36 70 0
-36 -70 0
128 24 0
-128 -24 0
61 91 0
-61 -91 0
18 77 0
-18 -77 0
60 20 0
-60 -20 0
15 97 0
-15 -97 0
2 5 0
-2 -5 0
95 109 0
-95 -109 0
131 71 0
-131 -71 0
77 8 0
-77 -8 0
130 48 0
-130 -48 0
93 87 0
-93 -87 0
71 48 0
-71 -48 0
5 137 0
-5 -137 0
33 123 0
-33 -123 0
62 107 0
-62 -107 0
27 18 0
-27 -18 0
83 41 0
-83 -41 0
131 126 0
-131 -126 0
7 90 0
-7 -90 0
101 83 0
-101 -83 0
56 45 0
-56 -45 0
130 91 0
-130 -91 0
31 80 0
-31 -80 0
43 45 0
-43 -45 0
40 6 0
-40 -6 0
21 65 0
-21 -65 0
91 125 0
-91 -125 0
90 104 0
-90 -104 0
14 75 0
-14 -75 0
88 8 0
-88 -8 0
24 112 0
-24 -112 0
106 80 0
-106 -80 0
96 59 0
-96 -59 0
2 9 0
-2 -9 0
114 71 0
-114 -71 0
107 125 0
-107 -125 0
19 47 0
-19 -47 0
117 20 0
-117 -20 0
106 28 0
-106 -28 0
81 123 0
-81 -123 0
51 69 0
-51 -69 0
11 4 0
-11 -4 0
89 82 0
-89 -82 0
7 19 0
-7 -19 0
140 127 0
-140 -127 0
138 93 0
-138 -93 0
52 71 0
-52 -71 0
97 56 0
-97 -56 0
30 66 0
-30 -66 0
48 72 0
-48 -72 0
35 126 0
-35 -126 0
23 81 0
-23 -81 0
79 133 0
-79 -133 0
139 38 0
-139 -38 0
118 72 0
-118 -72 0
95 55 0
-95 -55 0
5 104 0
-5 -104 0
43 131 0
-43 -131 0
116 44 0
-116 -44 0
50 109 0
-50 -109 0
31 55 0
-31 -55 0
131 8 0
-131 -8 0
132 83 0
-132 -83 0
61 20 0
-61 -20 0
10 34 0
-10 -34 0
97 131 0
-97 -131 0
116 112 0
-116 -112 0
78 92 0
-78 -92 0
45 119 0
-45 -119 0
71 83 0
-71 -83 0
36 126 0
-36 -126 0
74 35 0
-74 -35 0
124 23 0
-124 -23 0
79 29 0
-79 -29 0
56 92 0
-56 -92 0
95 122 0
-95 -122 0
114 80 0
-114 -80 0
124 11 0
-124 -11 0
109 36 0
-109 -36 0
47 87 0
-47 -87 0
14 34 0
-14 -34 0
82 59 0
-82 -59 0
130 13 0
-130 -13 0
53 37 0
-53 -37 0
110 18 0
-110 -18 0
67 76 0
-67 -76 0
109 129 0
-109 -129 0
40 59 0
-40 -59 0
116 68 0
-116 -68 0
132 87 0
-132 -87 0
92 90 0
-92 -90 0
75 112 0
-75 -112 0
23 54 0
-23 -54 0
102 9 0
-102 -9 0
33 125 0
-33 -125 0
61 9 0
-61 -9 0
124 91 0
-124 -91 0
7 137 0
-7 -137 0
50 21 0
-50 -21 0
6 123 0
-6 -123 0
42 107 0
-42 -107 0
128 110 0
-128 -110 0
9 78 0
-9 -78 0
81 119 0
-81 -119 0
40 36 0
-40 -36 0
102 40 0
-102 -40 0
20 4 0
-20 -4 0
114 127 0
-114 -127 0
88 77 0
-88 -77 0
30 84 0
-30 -84 0
18 123 0
-18 -123 0
44 13 0
-44 -13 0
93 65 0
-93 -65 0
35 40 0
-35 -40 0
109 51 0
-109 -51 0
100 42 0
-100 -42 0
35 62 0
-35 -62 0
57 90 0
-57 -90 0
44 76 0
-44 -76 0
44 104 0
-44 -104 0
121 129 0
-121 -129 0
99 93 0
-99 -93 0
39 1 0
-39 -1 0
118 96 0
-118 -96 0
32 30 0
-32 -30 0
74 65 0
-74 -65 0
110 122 0
-110 -122 0
92 137 0
-92 -137 0
136 125 0
-136 -125 0
43 70 0
-43 -70 0
89 87 0
-89 -87 0
124 117 0
-124 -117 0
18 59 0
-18 -59 0
72 45 0
-72 -45 0
76 65 0
-76 -65 0
117 26 0
-117 -26 0
18 90 0
-18 -90 0
118 34 0
-118 -34 0
37 67 0
-37 -67 0
85 32 0
-85 -32 0
132 4 0
-132 -4 0
78 8 0
-78 -8 0
121 23 0
-121 -23 0
132 75 0
-132 -75 0
19 5 0
-19 -5 0
96 70 0
-96 -70 0
89 59 0
-89 -59 0
16 79 0
-16 -79 0
50 136 0
-50 -136 0
